Version identifier: 22.1.0.0 | 2022-03-09 | 1a383f8ce
CPXPARAM_Threads                                 1
CPXPARAM_MIP_Strategy_VariableSelect             3
CPXPARAM_TimeLimit                               599.99998324000001
1 of 1 MIP starts provided solutions.
MIP start 'm1' defined initial solution with objective 1.0000.
Tried aggregator 1 time.
MIP Presolve eliminated 21 rows and 0 columns.
MIP Presolve modified 220 coefficients.
Reduced MIP has 901 rows, 2100 columns, and 25160 nonzeros.
Reduced MIP has 2100 binaries, 0 generals, 0 SOSs, and 0 indicators.
Presolve time = 0.04 sec. (49.58 ticks)
Probing time = 0.01 sec. (8.47 ticks)
Tried aggregator 1 time.
Detecting symmetries...
MIP Presolve modified 13 coefficients.
Reduced MIP has 901 rows, 2100 columns, and 25571 nonzeros.
Reduced MIP has 2100 binaries, 0 generals, 0 SOSs, and 0 indicators.
Presolve time = 0.03 sec. (28.51 ticks)
Probing time = 0.01 sec. (8.53 ticks)
Clique table members: 495.
MIP emphasis: balance optimality and feasibility.
MIP search method: dynamic search.
Parallel mode: none, using 1 thread.
Root relaxation solution time = 0.15 sec. (157.39 ticks)

        Nodes                                         Cuts/
   Node  Left     Objective  IInf  Best Integer    Best Bound    ItCnt     Gap

*     0+    0                            1.0000     5050.0000              --- 
      0     0      100.0000   431        1.0000      100.0000     1639     --- 
*     0+    0                           90.0000      100.0000            11.11%
      0     0        cutoff             90.0000      100.0000     1639   11.11%
Detecting symmetries...
      0     2      100.0000   107       90.0000      100.0000     1639   11.11%
Elapsed time = 2.94 sec. (2773.18 ticks, tree = 0.01 MB, solutions = 2)
      1     3      100.0000   269       90.0000      100.0000     4229   11.11%
      2     4      100.0000   366       90.0000      100.0000     5565   11.11%
      3     5      100.0000   186       90.0000      100.0000     6853   11.11%
      5     7      100.0000   181       90.0000      100.0000     8032   11.11%
      7     9      100.0000   426       90.0000      100.0000    10162   11.11%
      9    11      100.0000   237       90.0000      100.0000    10705   11.11%
     12    14      100.0000   173       90.0000      100.0000    12426   11.11%
     14    16      100.0000   265       90.0000      100.0000    13432   11.11%
     17    19      100.0000   278       90.0000      100.0000    14691   11.11%
     25    27      100.0000   174       90.0000      100.0000    20472   11.11%
Elapsed time = 6.72 sec. (6587.44 ticks, tree = 0.19 MB, solutions = 2)
     35    36      100.0000   142       90.0000      100.0000    25135   11.11%
     44    45      100.0000   150       90.0000      100.0000    30374   11.11%
     55    56      100.0000   118       90.0000      100.0000    35254   11.11%
     68    68       99.9971   194       90.0000      100.0000    39006   11.11%
     86    83       99.9208   213       90.0000      100.0000    43195   11.11%
    105   102       99.9162   240       90.0000      100.0000    45769   11.11%
    123   120       99.9124   219       90.0000      100.0000    48869   11.11%
*   140+  109                           98.0000      100.0000             2.04%
    141   109       99.7474   140       98.0000      100.0000    51581    2.04%
    163   118       97.9242   163       98.0000      100.0000    55052    2.04%
    176   126      100.0000   146       98.0000      100.0000    59775    2.04%
Elapsed time = 16.81 sec. (16477.59 ticks, tree = 0.96 MB, solutions = 3)
    197   147       99.6716   144       98.0000      100.0000    62185    2.04%
    219   164       99.8204   154       98.0000      100.0000    65239    2.04%
    243   177       99.0000    48       98.0000      100.0000    67655    2.04%
    255   187      100.0000   141       98.0000      100.0000    72952    2.04%
    271   199       99.2500    71       98.0000      100.0000    79752    2.04%
*   275    62      integral     0       99.0000      100.0000    81090    1.01%
    288    67      100.0000   140       99.0000      100.0000    84459    1.01%
    310    67    infeasible             99.0000      100.0000    89448    1.01%
    331    68      100.0000   194       99.0000      100.0000    94244    1.01%
    349    66      100.0000   123       99.0000      100.0000   101959    1.01%
    365    66    infeasible             99.0000      100.0000   109930    1.01%
Elapsed time = 27.07 sec. (26297.50 ticks, tree = 0.49 MB, solutions = 4)
    382    73      100.0000   137       99.0000      100.0000   113122    1.01%
    405    76      100.0000   130       99.0000      100.0000   117009    1.01%
    425    76    infeasible             99.0000      100.0000   124176    1.01%
    440    81      100.0000   192       99.0000      100.0000   130563    1.01%
    462    83      100.0000   119       99.0000      100.0000   134996    1.01%
    482    85      100.0000   172       99.0000      100.0000   140397    1.01%
    495    90      100.0000   163       99.0000      100.0000   146680    1.01%
    510    92    infeasible             99.0000      100.0000   153440    1.01%
    529    91      100.0000   117       99.0000      100.0000   159279    1.01%
    547    91    infeasible             99.0000      100.0000   166072    1.01%
Elapsed time = 37.33 sec. (36289.92 ticks, tree = 0.69 MB, solutions = 4)
    564    94      100.0000   136       99.0000      100.0000   172998    1.01%
    579    97      100.0000   158       99.0000      100.0000   180748    1.01%
    597   101      100.0000   164       99.0000      100.0000   186197    1.01%
    618   102      100.0000   165       99.0000      100.0000   191918    1.01%
    637   103    infeasible             99.0000      100.0000   198114    1.01%
    656   104      100.0000   132       99.0000      100.0000   204448    1.01%
    669   105      100.0000   110       99.0000      100.0000   211665    1.01%
    687   109      100.0000   145       99.0000      100.0000   217016    1.01%
    709   109      100.0000   142       99.0000      100.0000   222875    1.01%
    732   110      100.0000   138       99.0000      100.0000   228893    1.01%
Elapsed time = 47.71 sec. (46315.05 ticks, tree = 0.84 MB, solutions = 4)
    755   109      100.0000   137       99.0000      100.0000   233739    1.01%
    777   107      100.0000   132       99.0000      100.0000   239482    1.01%
    795   109      100.0000   132       99.0000      100.0000   244350    1.01%
    811   107    infeasible             99.0000      100.0000   252769    1.01%
    832   106      100.0000   138       99.0000      100.0000   259419    1.01%
    856   106      100.0000   137       99.0000      100.0000   264403    1.01%
    877   105    infeasible             99.0000      100.0000   270800    1.01%
    898   104    infeasible             99.0000      100.0000   277199    1.01%
    917   107      100.0000   163       99.0000      100.0000   282042    1.01%
    937   107      100.0000   152       99.0000      100.0000   287651    1.01%
Elapsed time = 57.79 sec. (56142.48 ticks, tree = 0.81 MB, solutions = 4)
    956   108      100.0000   172       99.0000      100.0000   292398    1.01%
    972   108      100.0000   158       99.0000      100.0000   299188    1.01%
    992   112    infeasible             99.0000      100.0000   305314    1.01%
   1008   114      100.0000   136       99.0000      100.0000   314538    1.01%
   1029   115      100.0000   140       99.0000      100.0000   319748    1.01%
   1049   119      100.0000   142       99.0000      100.0000   324086    1.01%
   1067   121      100.0000   117       99.0000      100.0000   331441    1.01%
   1085   125      100.0000   128       99.0000      100.0000   335385    1.01%
   1100   134      100.0000   141       99.0000      100.0000   338583    1.01%
   1122   129      100.0000   180       99.0000      100.0000   342871    1.01%
Elapsed time = 68.00 sec. (66099.22 ticks, tree = 0.99 MB, solutions = 4)
   1142   131    infeasible             99.0000      100.0000   345556    1.01%
   1165   132    infeasible             99.0000      100.0000   347752    1.01%
   1186   135      100.0000   128       99.0000      100.0000   351175    1.01%
   1208   133      100.0000   162       99.0000      100.0000   355119    1.01%
   1228   133      100.0000   165       99.0000      100.0000   358438    1.01%
   1248   135      100.0000   154       99.0000      100.0000   361546    1.01%
   1273   132      100.0000   149       99.0000      100.0000   365673    1.01%
   1291   136      100.0000   149       99.0000      100.0000   368730    1.01%
   1311   138    infeasible             99.0000      100.0000   371599    1.01%
   1332   141      100.0000   170       99.0000      100.0000   373874    1.01%
Elapsed time = 77.88 sec. (75999.67 ticks, tree = 1.09 MB, solutions = 4)
   1351   144    infeasible             99.0000      100.0000   376327    1.01%
   1369   148      100.0000   145       99.0000      100.0000   379034    1.01%
   1389   150      100.0000   117       99.0000      100.0000   382281    1.01%
   1410   151      100.0000   165       99.0000      100.0000   385662    1.01%
   1429   152      100.0000   162       99.0000      100.0000   388806    1.01%
   1445   154      100.0000   146       99.0000      100.0000   392159    1.01%
   1465   154      100.0000   138       99.0000      100.0000   395902    1.01%
   1482   157      100.0000   168       99.0000      100.0000   399378    1.01%
   1500   159      100.0000   169       99.0000      100.0000   402206    1.01%
   1520   163      100.0000   156       99.0000      100.0000   404834    1.01%
Elapsed time = 87.98 sec. (85913.20 ticks, tree = 1.26 MB, solutions = 4)
   1542   161    infeasible             99.0000      100.0000   408554    1.01%
   1559   172      100.0000   140       99.0000      100.0000   409765    1.01%
   1574   184      100.0000   131       99.0000      100.0000   411154    1.01%
   1597   183      100.0000    98       99.0000      100.0000   414208    1.01%
   1618   178    infeasible             99.0000      100.0000   419370    1.01%
   1640   176    infeasible             99.0000      100.0000   422994    1.01%
   1665   171      100.0000   147       99.0000      100.0000   426870    1.01%
   1688   168      100.0000   144       99.0000      100.0000   430154    1.01%
   1709   167      100.0000   130       99.0000      100.0000   433887    1.01%
   1785   169      100.0000   139       99.0000      100.0000   446631    1.01%
Elapsed time = 100.93 sec. (98577.96 ticks, tree = 1.31 MB, solutions = 4)
   1868   172      100.0000   117       99.0000      100.0000   459089    1.01%
   1924   178      100.0000   139       99.0000      100.0000   467109    1.01%

Performing restart 1

Repeating presolve.
Tried aggregator 1 time.
MIP Presolve eliminated 1 rows and 100 columns.
Reduced MIP has 900 rows, 2000 columns, and 18310 nonzeros.
Reduced MIP has 2000 binaries, 0 generals, 0 SOSs, and 0 indicators.
Presolve time = 0.01 sec. (9.18 ticks)
Tried aggregator 1 time.
Reduced MIP has 900 rows, 2000 columns, and 18310 nonzeros.
Reduced MIP has 2000 binaries, 0 generals, 0 SOSs, and 0 indicators.
Presolve time = 0.01 sec. (11.52 ticks)
Represolve time = 0.09 sec. (54.45 ticks)
*  1925+    0                          100.0000      100.0000             0.00%

Root node processing (before b&c):
  Real time             =    2.94 sec. (2773.22 ticks)
Sequential b&c:
  Real time             =  108.72 sec. (105935.24 ticks)
                          ------------
Total (root+branch&cut) =  111.65 sec. (108708.45 ticks)
Primal:	100
Dual:	100
Status:	Optimal
Time:	111.64
Sequence:
	14
	5
	2
	14
	16
	3
	15
	8
	1
	4
	10
	9
	2
	16
	17
	1
	5
	19
	6
	5
	14
	2
	5
	13
	9
	10
	4
	9
	10
	15
	9
	12
	15
	11
	1
	15
	8
	0
	13
	11
	12
	4
	8
	6
	13
	11
	12
	15
	8
	0
	13
	11
	12
	4
	8
	3
	13
	5
	9
	15
	18
	7
	13
	10
	9
	4
	18
	6
	14
	10
	1
	17
	5
	1
	19
	5
	0
	14
	5
	1
	17
	16
	3
	19
	5
	6
	19
	16
	2
	17
	16
	12
	17
	5
	1
	19
	5
	3
	19
	16
